46 60 65 41 49 86 23 14 3 91 26 61 8 62 21 25 39 87 38 63 94 67 99 32 4 68 15 6 84 17 89 78 42 85 58 97 0 70 54 72 22 59 92 88 28 43 77 71 79 51 66 35 11 44 69 80 40 90 19 57 74 30 12 31 75 27 29 55 16 13 50 34 83 18 96 24 64 53 76 9 20 73 98 37 7 5 47 36 1 33 56 2 81 48 10 82 93 95 45 52